pymatgen with grid density = 726 / number of atoms
0
Gamma
12 12  1
