SbSeBr                                       
   1.00000000000000     
     4.0714821265846952    0.0000000000059163    0.0000000000000052
    -2.0357410633316122    3.5260069527092988   -0.0000000000000016
     0.0000000000000259   -0.0000000000000045   23.5260837694254512
   Sb   Se   Br
     1     1     1
Direct
 -0.0000000000000000  0.0000000000000000  0.3979877520429800
  0.6666666865838948  0.3333333432214189  0.3328169791656765
  0.3333333432286452  0.6666666864428379  0.4780202013702391
