SbTeI                                     
   1.00000000000000     
     4.3043036546946416    0.0000000000037531    0.0000000000000012
    -2.1521518273904916    3.7276363106081991   -0.0000000000000032
    -0.0000000000000142    0.0000000000000079   24.4871257414609538
   Sb   Te   I 
     1     1     1
Direct
 -0.0000000000000000  0.0000000000000000  0.3982254849044627
  0.6666666865838948  0.3333333432214189  0.3296178112567262
  0.3333333432286452  0.6666666864428379  0.4809816364177457
