SbTeI                                   
   1.00000000000000     
    17.2172145844000006    0.0000000000000000    0.0000000000000000
    -8.6086072922000003   14.9105452125000006    0.0000000000000000
     0.0000000000000000    0.0000000000000000   24.4871253967000015
   Sb   Te   I    H 
    16    16    16     1
Direct
  0.0001726118117728 -0.0001726118117728  0.3950345201562728
  0.0001726118104869  0.2503452236151610  0.3950345201562728
 -0.0008972879596978  0.4995375903294342  0.3972361790655109
 -0.0008972879609910  0.7495651216715181  0.3972361790655109
  0.2504348782975235  0.0008972879571256  0.3972361790655109
  0.2501977038988930  0.2500988519446112  0.3944418087690846
  0.2504348782949442  0.4995375903294342  0.3972361790655109
  0.2499999999903295  0.7499999999748468  0.3975882571409434
  0.5004624096421793  0.0008972879571256  0.3972361790655109
  0.5043151246710351  0.2586302493594928  0.3915462538144796
  0.5043151246697490  0.4956848752992924  0.3915462538144796
  0.5004624096383210  0.7495651216715181  0.3972361790655109
  0.7496547763590320 -0.0001726118117728  0.3950345201562728
  0.7499011480282959  0.2500988519446112  0.3944418087690846
  0.7413697506121212  0.4956848752992924  0.3915462538144796
  0.7499011480257166  0.7498022960688558  0.3944418087690846
  0.1666137039985459  0.0819984308719696  0.3272249896774773
  0.1666137040357784  0.3346152805998233  0.3272249896774773
  0.1671336205381006  0.5842672112165520  0.3295496579121810
  0.1671336204787347  0.8328663645428823  0.3295496579121810
  0.4182717583706511  0.0865434794704651  0.3303190553024477
  0.4147241386075106  0.3323620693127471  0.3223042740222788
  0.4182717583531149  0.5817282415992855  0.3303190553024477
  0.4157327887345625  0.8328663645428823  0.3295496579121810
  0.6653847492173424  0.0819984308719696  0.3272249896774773
  0.6676379605416509  0.3323620693127471  0.3223042740222788
  0.6676379604868752  0.5852758613996589  0.3223042740222788
  0.6653847491985130  0.8333862810418935  0.3272249896774773
  0.9166666865186244  0.0833333357896464  0.3270730411722070
  0.9180015914735334  0.3346152805998233  0.3272249896774773
  0.9134565428202694  0.5817282415992855  0.3303190553024477
  0.9180015914174787  0.8333862810418935  0.3272249896774773
  0.0851772026517650  0.1675886050606514  0.4778468173576738
  0.0828910679312710  0.4157821507255826  0.4795543839949062
  0.0814592566784653  0.6657296469423321  0.4805388511490515
  0.0828910679286989  0.9171089544106011  0.4795543839949062
  0.3370728949632383  0.1712054301536066  0.4767252408150776
  0.3370728949719283  0.4158674797309722  0.4767252408150776
  0.3342703828352490  0.6657296469423321  0.4805388511490515
  0.3342703828339629  0.9185407656621207  0.4805388511490515
  0.5841325202460274  0.1712054301536066  0.4767252408150776
  0.5833333134589154  0.4166666865267743  0.5366691787185226
  0.5841325202534312  0.6629271348069465  0.4767252408150776
  0.5842178492575281  0.9171089544106011  0.4795543839949062
  0.8324113800301295  0.1675886050606514  0.4778468173576738
  0.8287945549458572  0.4158674797309722  0.4767252408150776
  0.8287945549445711  0.6629271348069465  0.4767252408150776
  0.8324113800362402  0.9148228196814248  0.4778468173576738
  0.5833333134589154  0.4166666865267743  0.6034138900935452
 
  0.00000000E+00  0.00000000E+00  0.00000000E+00
  0.00000000E+00  0.00000000E+00  0.00000000E+00
  0.00000000E+00  0.00000000E+00  0.00000000E+00
  0.00000000E+00  0.00000000E+00  0.00000000E+00
  0.00000000E+00  0.00000000E+00  0.00000000E+00
  0.00000000E+00  0.00000000E+00  0.00000000E+00
  0.00000000E+00  0.00000000E+00  0.00000000E+00
  0.00000000E+00  0.00000000E+00  0.00000000E+00
  0.00000000E+00  0.00000000E+00  0.00000000E+00
  0.00000000E+00  0.00000000E+00  0.00000000E+00
  0.00000000E+00  0.00000000E+00  0.00000000E+00
  0.00000000E+00  0.00000000E+00  0.00000000E+00
  0.00000000E+00  0.00000000E+00  0.00000000E+00
  0.00000000E+00  0.00000000E+00  0.00000000E+00
  0.00000000E+00  0.00000000E+00  0.00000000E+00
  0.00000000E+00  0.00000000E+00  0.00000000E+00
  0.00000000E+00  0.00000000E+00  0.00000000E+00
  0.00000000E+00  0.00000000E+00  0.00000000E+00
  0.00000000E+00  0.00000000E+00  0.00000000E+00
  0.00000000E+00  0.00000000E+00  0.00000000E+00
  0.00000000E+00  0.00000000E+00  0.00000000E+00
  0.00000000E+00  0.00000000E+00  0.00000000E+00
  0.00000000E+00  0.00000000E+00  0.00000000E+00
  0.00000000E+00  0.00000000E+00  0.00000000E+00
  0.00000000E+00  0.00000000E+00  0.00000000E+00
  0.00000000E+00  0.00000000E+00  0.00000000E+00
  0.00000000E+00  0.00000000E+00  0.00000000E+00
  0.00000000E+00  0.00000000E+00  0.00000000E+00
  0.00000000E+00  0.00000000E+00  0.00000000E+00
  0.00000000E+00  0.00000000E+00  0.00000000E+00
  0.00000000E+00  0.00000000E+00  0.00000000E+00
  0.00000000E+00  0.00000000E+00  0.00000000E+00
  0.00000000E+00  0.00000000E+00  0.00000000E+00
  0.00000000E+00  0.00000000E+00  0.00000000E+00
  0.00000000E+00  0.00000000E+00  0.00000000E+00
  0.00000000E+00  0.00000000E+00  0.00000000E+00
  0.00000000E+00  0.00000000E+00  0.00000000E+00
  0.00000000E+00  0.00000000E+00  0.00000000E+00
  0.00000000E+00  0.00000000E+00  0.00000000E+00
  0.00000000E+00  0.00000000E+00  0.00000000E+00
  0.00000000E+00  0.00000000E+00  0.00000000E+00
  0.00000000E+00  0.00000000E+00  0.00000000E+00
  0.00000000E+00  0.00000000E+00  0.00000000E+00
  0.00000000E+00  0.00000000E+00  0.00000000E+00
  0.00000000E+00  0.00000000E+00  0.00000000E+00
  0.00000000E+00  0.00000000E+00  0.00000000E+00
  0.00000000E+00  0.00000000E+00  0.00000000E+00
  0.00000000E+00  0.00000000E+00  0.00000000E+00
  0.00000000E+00  0.00000000E+00  0.00000000E+00
