SbTeI                                      
1.0
       17.2172145844         0.0000000000         0.0000000000
       -8.6086072922        14.9105452125         0.0000000000
        0.0000000000         0.0000000000        24.4871253967
   Sb   Te    I   H
   16   16   16    1
Cartesian
     0.000000000         0.000000000         9.751397419
    -2.152151823         3.727636303         9.751397419
    -4.304303646         7.455272606         9.751397419
    -6.456455469        11.182908909         9.751397419
     4.304303646         0.000000000         9.751397419
     2.152151823         3.727636303         9.751397419
     0.000000000         7.455272606         9.751397419
    -2.152151823        11.182908909         9.751397419
     8.608607292         0.000000000         9.751397419
     6.456455469         3.727636303         9.751397419
     4.304303646         7.455272606         9.751397419
     2.152151823        11.182908909         9.751397419
    12.912910938         0.000000000         9.751397419
    10.760759115         3.727636303         9.751397419
     8.608607292         7.455272606         9.751397419
     6.456455469        11.182908909         9.751397419
     2.152151887         1.242545471         8.071392361
     0.000000000         4.970181886         8.071392361
    -2.152151566         8.697817744         8.071392361
    -4.304303390        12.425454047         8.071392361
     6.456455790         1.242545471         8.071392361
     4.304303903         4.970181886         8.071392361
     2.152152336         8.697817744         8.071392361
     0.000000513        12.425454047         8.071392361
    10.760759436         1.242545471         8.071392361
     8.608607549         4.970181886         8.071392361
     6.456455982         8.697817744         8.071392361
     4.304304159        12.425454047         8.071392361
    15.065063082         1.242545471         8.071392361
    12.912911195         4.970181886         8.071392361
    10.760759628         8.697817744         8.071392361
     8.608607805        12.425454047         8.071392361
     0.000000000         2.485090943        11.777857927
    -2.152151951         6.212727468        11.777857927
    -4.304303774         9.940363771        11.777857927
    -6.456455597        13.668000074        11.777857927
     4.304303774         2.485090943        11.777857927
     2.152151823         6.212727468        11.777857927
     0.000000000         9.940363771        11.777857927
    -2.152151823        13.668000074        11.777857927
     8.608606907         2.485090943        11.777857927
     6.456454956         6.212727468        11.777857927
     4.304303133         9.940363771        11.777857927
     2.152151310        13.668000074        11.777857927
    12.912910553         2.485090943        11.777857927
    10.760758602         6.212727468        11.777857927
     8.608606779         9.940363771        11.777857927
     6.456454956        13.668000074        11.777857927
    6.456454956         6.212727468        13.077857927
