2                                       
1.0
       16.2859287262         0.0000000000         0.0000000000
       -8.1429643631        14.1040280011         0.0000000000
        0.0000000000         0.0000000000        23.5260829926
   Sb   Se   Br   O
   16   16   16   1
Cartesian
     0.000000000         0.000000000         9.363092911
    -2.035741091         3.526007000         9.363092911
    -4.071482182         7.052014001         9.363092911
    -6.107223272        10.578021001         9.363092911
     4.071482182         0.000000000         9.363092911
     2.035741091         3.526007000         9.363092911
     0.000000000         7.052014001         9.363092911
    -2.035741091        10.578021001         9.363092911
     8.142964363         0.000000000         9.363092911
     6.107223272         3.526007000         9.363092911
     4.071482182         7.052014001         9.363092911
     2.035741091        10.578021001         9.363092911
    12.214446545         0.000000000         9.363092911
    10.178705454         3.526007000         9.363092911
     8.142964363         7.052014001         9.363092911
     6.107223272        10.578021001         9.363092911
     2.035741151         1.175335702         7.829880086
     0.000000000         4.701342807         7.829880086
    -2.035740848         8.227349387         7.829880086
    -4.071481939        11.753356387         7.829880086
     6.107223576         1.175335702         7.829880086
     4.071482424         4.701342807         7.829880086
     2.035741576         8.227349387         7.829880086
     0.000000485        11.753356387         7.829880086
    10.178705757         1.175335702         7.829880086
     8.142964606         4.701342807         7.829880086
     6.107223758         8.227349387         7.829880086
     4.071482667        11.753356387         7.829880086
    14.250187939         1.175335702         7.829880086
    12.214446787         4.701342807         7.829880086
    10.178705939         8.227349387         7.829880086
     8.142964848        11.753356387         7.829880086
     0.000000000         2.350671404        11.245942690
    -2.035741212         5.876678614        11.245942690
    -4.071482303         9.402685614        11.245942690
    -6.107223394        12.928692615        11.245942690
     4.071482303         2.350671404        11.245942690
     2.035741091         5.876678614        11.245942690
     0.000000000         9.402685614        11.245942690
    -2.035741091        12.928692615        11.245942690
     8.142963999         2.350671404        11.245942690
     6.107222787         5.876678614        11.245942690
     4.071481696         9.402685614        11.245942690
     2.035740605        12.928692615        11.245942690
    12.214446181         2.350671404        11.245942690
    10.178704969         5.876678614        11.245942690
     8.142963878         9.402685614        11.245942690
     6.107222787        12.928692615        11.245942690
     6.107223758         8.227349387         6.529880086
