SbSeI                                      
   1.00000000000000     
     4.1651253785452083    0.0000000000042226    0.0000000000000002
    -2.0825626893140967    3.6071043878053497   -0.0000000000000002
     0.0000000000000005    0.0000000000000005   24.7181951527261923
   Sb   Se   I 
     1     1     1
Direct
  0.0000000000000000  0.0000000000000000  0.3943956706949502
  0.6666666865838948  0.3333333432214189  0.3350537641581968
  0.3333333432286452  0.6666666864428379  0.4793754977257826
