SbTeI                                   
   1.00000000000000     
    17.2172145844000006    0.0000000000000000    0.0000000000000000
    -8.6086072922000003   14.9105452125000006    0.0000000000000000
     0.0000000000000000    0.0000000000000000   24.4871253967000015
   Sb   Te   I    O    H 
    16    16    16     2     1
Direct
 -0.0004284291295492  0.0004284291295492  0.4042688928285352
  0.9995715708691645  0.2491431417325173  0.4042688928285352
  0.0006906681653927  0.4999685563647602  0.4007192016988099
  0.0006906681640995  0.7507221117612826  0.4007192016988099
  0.2492778882077593 -0.0006906681679648  0.4007192016988099
  0.2491556973464897  0.2495778486684097  0.3999414532938113
  0.2492778882051800  0.4999685563647602  0.4007192016988099
  0.2499999999903295  0.7499999999748468  0.4008295983146550
  0.5000314436068538 -0.0006906681679648  0.4007192016988099
  0.4981704660627083  0.2463409321428389  0.4000474537341094
  0.4981704660614222  0.5018295339076191  0.4000474537341094
  0.5000314436029956  0.7507221117612826  0.4007192016988099
  0.7508568582416760  0.0004284291295492  0.4042688928285352
  0.7504221513044971  0.2495778486684097  0.3999414532938113
  0.7536590678287743  0.5018295339076191  0.4000474537341094
  0.7504221513019178  0.7508443026212589  0.3999414532938113
  0.1644189099006827  0.0824133088337395  0.3338904895334885
  0.1644189099379151  0.3320056085401900  0.3338904895334885
  0.1665613767843596  0.5831227237090703  0.3323765333734084
  0.1665613767249937  0.8334386082966231  0.3323765333734084
  0.4156989086828731  0.0813977800949093  0.3320629157204349
  0.4107984318503991  0.3303992159341915  0.3316737512273084
  0.4156989086653369  0.5843010912870642  0.3320629157204349
  0.4168772762420445  0.8334386082966231  0.3323765333734084
  0.6679944212769755  0.0824133088337395  0.3338904895334885
  0.6696008139202068  0.3303992159341915  0.3316737512273084
  0.6696008138654310  0.5892015681567702  0.3316737512273084
  0.6679944212581461  0.8355810751397569  0.3338904895334885
  0.9166666865186244  0.0833333357896464  0.3357402511660366
  0.9175867135117632  0.3320056085401900  0.3338904895334885
  0.9186022421958254  0.5843010912870642  0.3320629157204349
  0.9175867134557085  0.8355810751397569  0.3338904895334885
  0.0803490272212576  0.1651745173453978  0.4875807229277293
  0.0843579247689735  0.4187158644009874  0.4851481070259330
  0.0840071329953579  0.6670035851007780  0.4838133807597736
  0.0843579247664014  0.9156420975728986  0.4851481070259330
  0.3349322301899896  0.1669723875633524  0.4832707678660411
  0.3349322301986796  0.4179598575479779  0.4832707678660411
  0.3329964446768026  0.6670035851007780  0.4838133807597736
  0.3329964446755165  0.9159928893452279  0.4838133807597736
  0.5820401424290214  0.1669723875633524  0.4832707678660411
  0.5833333134589154  0.4166666865267743  0.4809614962300325
  0.5820401424364252  0.6650677995801942  0.4832707678660411
  0.5812841355821229  0.9156420975728986  0.4851481070259330
  0.8348254677453842  0.1651745173453978  0.4875807229277293
  0.8330275975361111  0.4179598575479779  0.4832707678660411
  0.8330275975348250  0.6650677995801942  0.4832707678660411
  0.8348254677514949  0.9196509951119322  0.4875807229277293
  0.5833333134589154  0.3766666865267743  0.3006149634911547
  0.583333333         0.416666666         0.270614
  0.5833323368400087  0.3866648443406160  0.2404628293183361

