ALGO =BSE
!NOMEGA = 32
   ISMEAR = 0
   SIGMA = 0.1
NBANDS = 256
NBANDSO = 4
NBANDSV = 8
LOPTICS = .TRUE.
