2                                       
   1.00000000000000     
    16.9019069671999986    0.0000000000000000    0.0000000000000000
    -8.4509554327000007   14.6374796807000003    0.0000000000000000
     0.0000000000000000    0.0000000000000000   23.9599361420000001
   Sb   Te   Br   O  H
    16    16    16   1   1
Direct
  0.0013516870181684  0.0012305002710645  0.4009124721359690
  0.0000000000043769  0.2499999999880416  0.4008925707324460
  0.0013516870269223  0.5001211867231937  0.4009124721359690
 -0.0006751826359045  0.7496624086691972  0.4013829730873505
  0.2502882294167344 -0.0002882294049037  0.3997904670176387
  0.2487694997451431  0.2486483129698732  0.4009124721359690
  0.2487694996903532  0.5001211867231937  0.4009124721359690
  0.2502882293706983  0.7505764587739394  0.3997904670176387
  0.4994235412138608 -0.0002882294049037  0.3997904670176387
  0.5003375912638128  0.2506751825779102  0.4013829730873505
  0.4894479092776039  0.4947239546282648  0.4031905720587563
  0.5003375912725667  0.7496624086691972  0.4013829730873505
  0.7498788132292283  0.0012305002710645  0.4009124721359690
  0.7498788132336053  0.2486483129698732  0.4009124721359690
  0.7552760453329117  0.4947239546282648  0.4031905720587563
  0.7552760453372886  0.7605520906597827  0.4031905720587563
  0.1666237928126902  0.0833762146380966  0.3286173670862274
  0.1659320726006428  0.3329660437609598  0.3294791810189118
  0.1666237928336513  0.5832475558629832  0.3286173670862274
  0.1663133001935226  0.8331566277344179  0.3285745480425234
  0.4168433722619794  0.0836867072826020  0.3285745480425234
  0.4160441114477595  0.3336619406812178  0.3293510655219557
  0.4160441114684221  0.5823821409679206  0.3293510655219557
  0.4168433722281575  0.8331566277344179  0.3285745480425234
  0.6667524441572105  0.0833762146380966  0.3286173670862274
  0.6676178590525785  0.3336619406812178  0.3293510655219557
  0.6666666865114763  0.5833333134705114  0.3393567964643170
  0.6676178590184441  0.8339558885489435  0.3293510655219557
  0.9170339860695712  0.0840679348504494  0.3294791810189118
  0.9170339860698767  0.3329660437609598  0.3294791810189118
  0.9163380891111139  0.5823821409679206  0.3293510655219557
  0.9163380891154909  0.8339558885489435  0.3293510655219557
  0.0839675484906330  0.1660324589010152  0.4765587656476750
  0.0839675485210229  0.4179351119486497  0.4765587656476750
  0.0833731176523184  0.6668696532775187  0.4759496902459847
  0.0833731176566953  0.9165035016128311  0.4759496902459847
  0.3334965281711523  0.1666268897740968  0.4759496902459847
  0.3258965119270278  0.4129482708693469  0.4787458645282657
  0.3334965282059262  0.6668696532775187  0.4759496902459847
  0.3333333432378964  0.9166666865260709  0.4753384934092678
  0.5831303467111340  0.1666268897740968  0.4759496902459847
  0.5817708991087652  0.4135418578054769  0.4764801890257708
  0.5817708991131422  0.6682291009102844  0.4764801890257708
  0.5831303467502849  0.9165035016128311  0.4759496902459847
  0.8320648880637993  0.1660324589010152  0.4765587656476750
  0.8370517291734916  0.4129482708693469  0.4787458645282657
  0.8364581421825716  0.6682291009102844  0.4764801890257708
  0.8370517291230786  0.9241035178873525  0.4787458645282657
  0.6666666865114763  0.5833333134705114  0.2622324080011009
  0.6666666865        0.58333333          0.20
 
  0.00000000E+00  0.00000000E+00  0.00000000E+00
  0.00000000E+00  0.00000000E+00  0.00000000E+00
  0.00000000E+00  0.00000000E+00  0.00000000E+00
  0.00000000E+00  0.00000000E+00  0.00000000E+00
  0.00000000E+00  0.00000000E+00  0.00000000E+00
  0.00000000E+00  0.00000000E+00  0.00000000E+00
  0.00000000E+00  0.00000000E+00  0.00000000E+00
  0.00000000E+00  0.00000000E+00  0.00000000E+00
  0.00000000E+00  0.00000000E+00  0.00000000E+00
  0.00000000E+00  0.00000000E+00  0.00000000E+00
  0.00000000E+00  0.00000000E+00  0.00000000E+00
  0.00000000E+00  0.00000000E+00  0.00000000E+00
  0.00000000E+00  0.00000000E+00  0.00000000E+00
  0.00000000E+00  0.00000000E+00  0.00000000E+00
  0.00000000E+00  0.00000000E+00  0.00000000E+00
  0.00000000E+00  0.00000000E+00  0.00000000E+00
  0.00000000E+00  0.00000000E+00  0.00000000E+00
  0.00000000E+00  0.00000000E+00  0.00000000E+00
  0.00000000E+00  0.00000000E+00  0.00000000E+00
  0.00000000E+00  0.00000000E+00  0.00000000E+00
  0.00000000E+00  0.00000000E+00  0.00000000E+00
  0.00000000E+00  0.00000000E+00  0.00000000E+00
  0.00000000E+00  0.00000000E+00  0.00000000E+00
  0.00000000E+00  0.00000000E+00  0.00000000E+00
  0.00000000E+00  0.00000000E+00  0.00000000E+00
  0.00000000E+00  0.00000000E+00  0.00000000E+00
  0.00000000E+00  0.00000000E+00  0.00000000E+00
  0.00000000E+00  0.00000000E+00  0.00000000E+00
  0.00000000E+00  0.00000000E+00  0.00000000E+00
  0.00000000E+00  0.00000000E+00  0.00000000E+00
  0.00000000E+00  0.00000000E+00  0.00000000E+00
  0.00000000E+00  0.00000000E+00  0.00000000E+00
  0.00000000E+00  0.00000000E+00  0.00000000E+00
  0.00000000E+00  0.00000000E+00  0.00000000E+00
  0.00000000E+00  0.00000000E+00  0.00000000E+00
  0.00000000E+00  0.00000000E+00  0.00000000E+00
  0.00000000E+00  0.00000000E+00  0.00000000E+00
  0.00000000E+00  0.00000000E+00  0.00000000E+00
  0.00000000E+00  0.00000000E+00  0.00000000E+00
  0.00000000E+00  0.00000000E+00  0.00000000E+00
  0.00000000E+00  0.00000000E+00  0.00000000E+00
  0.00000000E+00  0.00000000E+00  0.00000000E+00
  0.00000000E+00  0.00000000E+00  0.00000000E+00
  0.00000000E+00  0.00000000E+00  0.00000000E+00
  0.00000000E+00  0.00000000E+00  0.00000000E+00
  0.00000000E+00  0.00000000E+00  0.00000000E+00
  0.00000000E+00  0.00000000E+00  0.00000000E+00
  0.00000000E+00  0.00000000E+00  0.00000000E+00
  0.00000000E+00  0.00000000E+00  0.00000000E+00
