SbTeBr
   1.00000000000000     
     4.2254766675716642    0.0000000000044731   -0.0000000000000001
    -2.1127383338277643    3.6593701372534886   -0.0000000000000000
     0.0000000000000003   -0.0000000000000005   23.9599363124041673
   Sb   Te   Br
     1     1     1
Direct
  0.0000000000000000  0.0000000000000000  0.4021088441657281
  0.6666666865838948  0.3333333432214189  0.3300063190836960
  0.3333333432286452  0.6666666864428379  0.4767097693295095
