2                                       
   1.00000000000000     
    16.9019069671999986    0.0000000000000000    0.0000000000000000
    -8.4509554327000007   14.6374796807000003    0.0000000000000000
     0.0000000000000000    0.0000000000000000   23.9599361420000001
   Sb   Te   Br   H 
    16    16    16     1
Direct
  0.0029018264944603  0.0022080805146676  0.4000670111587588
  0.0000000000043769  0.2499999999880416  0.4017992254624338
  0.0029018265032142  0.5006937459558830  0.4000670111587588
  0.0003975151949774  0.7501987575846383  0.4012178167819656
  0.2506552306157377 -0.0006552306039072  0.4006023421777082
  0.2477919195015398  0.2470981734935813  0.4000670111587588
  0.2477919194467499  0.5006937459558830  0.4000670111587588
  0.2506552305697017  0.7513104611719462  0.4006023421777082
  0.4986895388158539 -0.0006552306039072  0.4006023421777082
  0.4998012423483716  0.2496024847470281  0.4012178167819656
  0.4872037136195909  0.4936018567992582  0.4033617440676593
  0.4998012423571255  0.7501987575846383  0.4012178167819656
  0.7493062539965391  0.0022080805146676  0.4000670111587588
  0.7493062540009158  0.2470981734935813  0.4000670111587588
  0.7563981431619178  0.4936018567992582  0.4033617440676593
  0.7563981431662947  0.7627962863177959  0.4033617440676593
  0.1667715978490568  0.0832284096017298  0.3293293752178806
  0.1654514035153604  0.3327257092183185  0.3301931673986703
  0.1667715978700178  0.5835431659357170  0.3293293752178806
  0.1668170118380427  0.8334084835566785  0.3292708328374734
  0.4165915164397194  0.0831829956380819  0.3292708328374734
  0.4141814249601816  0.3317222610287587  0.3297016394131537
  0.4141814249808441  0.5824591341328019  0.3297016394131537
  0.4165915164058975  0.8334084835566785  0.3292708328374734
  0.6664568340844766  0.0832284096017298  0.3293293752178806
  0.6675408658876972  0.3317222610287587  0.3297016394131537
  0.6666666865114763  0.5833333134705114  0.3362030947408503
  0.6675408658535628  0.8358185750365219  0.3297016394131537
  0.9172743206122124  0.0845486039357318  0.3301931673986703
  0.9172743206125179  0.3327257092183185  0.3301931673986703
  0.9182777687635738  0.5824591341328019  0.3297016394131537
  0.9182777687679508  0.8358185750365219  0.3297016394131537
  0.0839391835786538  0.1660608238129944  0.4769037907662977
  0.0839391836090438  0.4178783821246914  0.4769037907662977
  0.0835795268749994  0.6674637929625923  0.4757529293131472
  0.0835795268793764  0.9161157711504386  0.4757529293131472
  0.3338842586335445  0.1664204805514155  0.4757529293131472
  0.3396389967781175  0.4198195132948916  0.4772003175639198
  0.3338842586683184  0.6674637929625923  0.4757529293131472
  0.3333333432378964  0.9166666865260709  0.4756682146928077
  0.5825362070260603  0.1664204805514155  0.4757529293131472
  0.5826834369958641  0.4153669335796754  0.4754965680490491
  0.5826834370002411  0.6673165630231855  0.4754965680490491
  0.5825362070652113  0.9161157711504386  0.4757529293131472
  0.8321216178877575  0.1660608238129944  0.4769037907662977
  0.8301804867479469  0.4198195132948916  0.4772003175639198
  0.8346330664083736  0.6673165630231855  0.4754965680490491
  0.8301804866975339  0.9103610330362630  0.4772003175639198
  0.6666666865114763  0.5833333134705114  0.2660315397816230
 
  0.00000000E+00  0.00000000E+00  0.00000000E+00
  0.00000000E+00  0.00000000E+00  0.00000000E+00
  0.00000000E+00  0.00000000E+00  0.00000000E+00
  0.00000000E+00  0.00000000E+00  0.00000000E+00
  0.00000000E+00  0.00000000E+00  0.00000000E+00
  0.00000000E+00  0.00000000E+00  0.00000000E+00
  0.00000000E+00  0.00000000E+00  0.00000000E+00
  0.00000000E+00  0.00000000E+00  0.00000000E+00
  0.00000000E+00  0.00000000E+00  0.00000000E+00
  0.00000000E+00  0.00000000E+00  0.00000000E+00
  0.00000000E+00  0.00000000E+00  0.00000000E+00
  0.00000000E+00  0.00000000E+00  0.00000000E+00
  0.00000000E+00  0.00000000E+00  0.00000000E+00
  0.00000000E+00  0.00000000E+00  0.00000000E+00
  0.00000000E+00  0.00000000E+00  0.00000000E+00
  0.00000000E+00  0.00000000E+00  0.00000000E+00
  0.00000000E+00  0.00000000E+00  0.00000000E+00
  0.00000000E+00  0.00000000E+00  0.00000000E+00
  0.00000000E+00  0.00000000E+00  0.00000000E+00
  0.00000000E+00  0.00000000E+00  0.00000000E+00
  0.00000000E+00  0.00000000E+00  0.00000000E+00
  0.00000000E+00  0.00000000E+00  0.00000000E+00
  0.00000000E+00  0.00000000E+00  0.00000000E+00
  0.00000000E+00  0.00000000E+00  0.00000000E+00
  0.00000000E+00  0.00000000E+00  0.00000000E+00
  0.00000000E+00  0.00000000E+00  0.00000000E+00
  0.00000000E+00  0.00000000E+00  0.00000000E+00
  0.00000000E+00  0.00000000E+00  0.00000000E+00
  0.00000000E+00  0.00000000E+00  0.00000000E+00
  0.00000000E+00  0.00000000E+00  0.00000000E+00
  0.00000000E+00  0.00000000E+00  0.00000000E+00
  0.00000000E+00  0.00000000E+00  0.00000000E+00
  0.00000000E+00  0.00000000E+00  0.00000000E+00
  0.00000000E+00  0.00000000E+00  0.00000000E+00
  0.00000000E+00  0.00000000E+00  0.00000000E+00
  0.00000000E+00  0.00000000E+00  0.00000000E+00
  0.00000000E+00  0.00000000E+00  0.00000000E+00
  0.00000000E+00  0.00000000E+00  0.00000000E+00
  0.00000000E+00  0.00000000E+00  0.00000000E+00
  0.00000000E+00  0.00000000E+00  0.00000000E+00
  0.00000000E+00  0.00000000E+00  0.00000000E+00
  0.00000000E+00  0.00000000E+00  0.00000000E+00
  0.00000000E+00  0.00000000E+00  0.00000000E+00
  0.00000000E+00  0.00000000E+00  0.00000000E+00
  0.00000000E+00  0.00000000E+00  0.00000000E+00
  0.00000000E+00  0.00000000E+00  0.00000000E+00
  0.00000000E+00  0.00000000E+00  0.00000000E+00
  0.00000000E+00  0.00000000E+00  0.00000000E+00
  0.00000000E+00  0.00000000E+00  0.00000000E+00
