2                                       
   1.00000000000000     
    16.2859287262000016    0.0000000000000000    0.0000000000000000
    -8.1429643631000008   14.1040280010999997    0.0000000000000000
     0.0000000000000000    0.0000000000000000   23.5260829925999992
   Sb   Se   Br   O    H 
    16    16    16     2     1
Direct
 -0.0018904288861062 -0.0002624226867828  0.3990856811093045
  0.9991033020579394  0.2494250406090749  0.3985734928355034
  0.9994985833213107  0.4991180943346193  0.3977450464957654
  0.0013762198578721  0.7499539137831605  0.3978184844303988
  0.2501066727981475  0.0001788489540745  0.3994613241952003
  0.2477660333643381  0.2460447349853129  0.3982439463521472
  0.2499798812560381  0.5002368571001058  0.3980710832091917
  0.2495383021042013  0.7496564166420612  0.3976527686484608
  0.5009236644409316  0.0001644293243207  0.3977088373017375
  0.4985948214599938  0.2486305170129063  0.3977299404389352
  0.5015913831857143  0.5038747120211569  0.3943624164697539
  0.4995940203108656  0.7506516539974992  0.3974051436439602
  0.7496272127364374 -0.0007306216024972  0.3982400982140397
  0.7489459322744896  0.2503410593682910  0.3978671677528638
  0.7511154805956034  0.5024951990180131  0.3985260200260699
  0.7533636809407338  0.7514430868364311  0.3990631270925599
  0.1650275258299371  0.0827034593104470  0.3343667952436795
  0.1669622207679645  0.3310964422448464  0.3345923704310269
  0.1663480922954903  0.5824243901304171  0.3330605427815498
  0.1665882006971034  0.8327770194341928  0.3331073864200185
  0.4168511875019904  0.0826602984325972  0.3336217889500964
  0.4144121069294065  0.3305257550896498  0.3300855693155896
  0.4149189155841851  0.5857683876013253  0.3323330609689120
  0.4172660701547292  0.8335668131244294  0.3328901640416919
  0.6661101762131565  0.0831372677929544  0.3331150871282738
  0.6635416644556345  0.3335531675697485  0.3338866718704601
  0.6767367803567669  0.5934053391538772  0.3343837786273780
  0.6673113064713739  0.8327516713399038  0.3337164115098372
  0.9162111227749834  0.0828428822987480  0.3334262277899759
  0.9163748457047910  0.3330609184858493  0.3333208934568640
  0.9169885161439590  0.5827333390858717  0.3331453215741284
  0.9168612632346809  0.8344791453279400  0.3338047893432862
  0.0817574841858177  0.1666873151640552  0.4796762465683896
  0.0834301317960601  0.4161305563640382  0.4786434586389132
  0.0836861579103345  0.6672341135554286  0.4781324960152781
  0.0831227719494045  0.9154641653526854  0.4785633763042578
  0.3278823152009506  0.1595574419807159  0.4809669571222758
  0.3399147643392088  0.4189965058876501  0.4757447024886864
  0.3324043394652608  0.6663743287436580  0.4783298980696531
  0.3321522691026912  0.9157444931089702  0.4783683349301792
  0.5831875340715000  0.1666813223993589  0.4782599839234449
  0.5808646600728451  0.4186189338865758  0.4763206121929364
  0.5783525960270367  0.6590042282295711  0.4771171603518100
  0.5835727723097868  0.9160263700402755  0.4787607458750681
  0.8325086392193067  0.1678119744387338  0.4781778254077566
  0.8334462149458266  0.4159684328534342  0.4784922922248580
  0.8351928586985922  0.6668401744002307  0.4795470134318331
  0.8361996698001382  0.9235933178911849  0.4805722060168049
  0.5147551831651486  0.4382252608332582  0.2795810439384671
  0.5147551831651486  0.3682252608332582  0.2795810439384671
  0.4898250298997335  0.4223333979445479  0.2408078780280798
 

