2                                       
1.0
       16.9019069672         0.0000000000         0.0000000000
       -8.4509554327        14.6374796807         0.0000000000
        0.0000000000         0.0000000000        23.9599361420
   Sb   Te   Br  O
   16   16   16  1
Cartesian
     0.000000000         0.000000000         9.634502322
    -2.112738858         3.659369920         9.634502322
    -4.225477716         7.318739840         9.634502322
    -6.338216575        10.978109760         9.634502322
     4.225476742         0.000000000         9.634502322
     2.112737884         3.659369920         9.634502322
    -0.000000975         7.318739840         9.634502322
    -2.112739833        10.978109760         9.634502322
     8.450953484         0.000000000         9.634502322
     6.338214625         3.659369920         9.634502322
     4.225475767         7.318739840         9.634502322
     2.112736909        10.978109760         9.634502322
    12.676430225         0.000000000         9.634502322
    10.563691367         3.659369920         9.634502322
     8.450952509         7.318739840         9.634502322
     6.338213651        10.978109760         9.634502322
     2.112738271         1.219790010         7.906930622
    -0.000000650         4.879160039         7.906930622
    -2.112739256         8.538529523         7.906930622
    -4.225478114        12.197899443         7.906930622
     6.338215265         1.219790010         7.906930622
     4.225476344         4.879160039         7.906930622
     2.112737738         8.538529523         7.906930622
    -0.000001121        12.197899443         7.906930622
    10.563692007         1.219790010         7.906930622
     8.450953086         4.879160039         7.906930622
     6.338214479         8.538529523         7.906930622
     4.225475621        12.197899443         7.906930622
    14.789168749         1.219790010         7.906930622
    12.676429828         4.879160039         7.906930622
    10.563691221         8.538529523         7.906930622
     8.450952363        12.197899443         7.906930622
    -0.000000325         2.439580019        11.421935961
    -2.112739309         6.098950158        11.421935961
    -4.225478167         9.758320078        11.421935961
    -6.338217025        13.417689998        11.421935961
     4.225476543         2.439580019        11.421935961
     2.112737559         6.098950158        11.421935961
    -0.000001299         9.758320078        11.421935961
    -2.112740158        13.417689998        11.421935961
     8.450952781         2.439580019        11.421935961
     6.338213797         6.098950158        11.421935961
     4.225474939         9.758320078        11.421935961
     2.112736081        13.417689998        11.421935961
    12.676429523         2.439580019        11.421935961
    10.563690539         6.098950158        11.421935961
     8.450951680         9.758320078        11.421935961
     6.338212822        13.417689998        11.421935961
     6.338214479         8.538529523         5.806930622
