
#relaxation
  IBRION = 2
    ISIF = 2
!    PREC = Accurate
   ENCUT = 520
     NSW = 501
  EDIFF = 1.0e-04
  EDIFFG = -0.01
!  ALGO = Normal (blocked Davidson)
#start
 NPAR = 8
#
LREAL = .FALSE.
   ISMEAR = 0
   SIGMA = 0.05
#Paralellisation
LPLANE = .TRUE.
############
#Van-der-Waals
 IVDW= 20

