SbTeI                                   
   1.00000000000000     
    17.2172145844000006    0.0000000000000000    0.0000000000000000
    -8.6086072922000003   14.9105452125000006    0.0000000000000000
     0.0000000000000000    0.0000000000000000   24.4871253967000015
   Sb   Te   I    O   H
    16    16    16  1  1
Direct
  0.0000000000000000  0.0000000000000000  0.3979616523903994
  0.9999999999987139  0.2499999999916156  0.3979616523903994
  0.9999999999974278  0.4999999999832312  0.3979616523903994
  0.9999999999961346  0.7499999999748468  0.3979616523903994
  0.2499999999941949  0.0000000000000000  0.3979616523903994
  0.2499999999929017  0.2499999999916156  0.3979616523903994
  0.2499999999916156  0.4999999999832312  0.3979616523903994
  0.2499999999903295  0.7499999999748468  0.3979616523903994
  0.4999999999883826  0.0000000000000000  0.3979616523903994
  0.4999999999870965  0.2499999999916156  0.3979616523903994
  0.4999999999858105  0.4999999999832312  0.3979616523903994
  0.4999999999845244  0.7499999999748468  0.3979616523903994
  0.7499999999825775  0.0000000000000000  0.3979616523903994
  0.7499999999812914  0.2499999999916156  0.3979616523903994
  0.7499999999799982  0.4999999999832312  0.3979616523903994
  0.7499999999787121  0.7499999999748468  0.3979616523903994
  0.1666666716091285  0.0833333357896464  0.3297928432539743
  0.1666666716463610  0.3333333432927290  0.3297928432539743
  0.1666666716496721  0.5833333134396952  0.3297928432539743
  0.1666666715903062  0.8333333134313108  0.3297928432539743
  0.4166666865302417  0.0833333357896464  0.3297928432539743
  0.4166666865674742  0.3333333432927290  0.3297928432539743
  0.4166666865127056  0.5833333134396952  0.3297928432539743
  0.4166666865114195  0.8333333134313108  0.3297928432539743
  0.6666666865244366  0.0833333357896464  0.3297928432539743
  0.6666666865616691  0.3333333432927290  0.3297928432539743
  0.6666666865068933  0.5833333134396952  0.3297928432539743
  0.6666666865056072  0.8333333134313108  0.3297928432539743
  0.9166666865186244  0.0833333357896464  0.3297928432539743
  0.9166666865558568  0.3333333432927290  0.3297928432539743
  0.9166666865010882  0.5833333134396952  0.3297928432539743
  0.9166666864998021  0.8333333134313108  0.3297928432539743
  0.0833333358231840  0.1666666716463610  0.4810704369460861
  0.0833333358318669  0.4166666865267743  0.4810704369460861
  0.0833333358305808  0.6666666865183899  0.4810704369460861
  0.0833333358292947  0.9166666865100055  0.4810704369460861
  0.3333333432517946  0.1666666716463610  0.4810704369460861
  0.3333333432604846  0.4166666865267743  0.4810704369460861
  0.3333333432591914  0.6666666865183899  0.4810704369460861
  0.3333333432579053  0.9166666865100055  0.4810704369460861
  0.5833333134502254  0.1666666716463610  0.4810704369460861
  0.5833333134589154  0.4166666865267743  0.4810704369460861
  0.5833333134576293  0.6666666865183899  0.4810704369460861
  0.5833333134563361  0.9166666865100055  0.4810704369460861
  0.8333333134444203  0.1666666716463610  0.4810704369460861
  0.8333333134531031  0.4166666865267743  0.4810704369460861
  0.8333333134518170  0.6666666865183899  0.4810704369460861
  0.8333333134505310  0.9166666865100055  0.4810704369460861
  0.5933333134505310  0.6966666865100055  0.2810704369460861
 0.5933333333         0.69666666          0.2410704
