2                                       
   1.00000000000000     
    16.2859287262000016    0.0000000000000000    0.0000000000000000
    -8.1429643631000008   14.1040280010999997    0.0000000000000000
     0.0000000000000000    0.0000000000000000   23.5260829925999992
   Sb   Se   Br   O    H
    16    16    16     1  1
Direct
  0.0011150104518088  0.0013712186004089  0.3980217527649230
  0.9999999999764384  0.2499999999805027  0.3980021979505569
  0.0011150104401273  0.4997437918833032  0.3980217527649230
 -0.0012655993680331  0.7493672003153082  0.3989281175585989
  0.2505237739047976 -0.0005237738771646  0.3968447270495045
  0.2486287814036554  0.2488849895286939  0.3980217527649230
  0.2486287814155428  0.4997437918833032  0.3980217527649230
  0.2505237738695547  0.7510475477667354  0.3968447270495045
  0.4989524522395316 -0.0005237738771646  0.3968447270495045
  0.5006327996673900  0.2512655993746979  0.3989281175585989
  0.4908234700900910  0.4954117350551565  0.3978901213513264
  0.5006327997171138  0.7493672003153082  0.3989281175585989
  0.7502562081700940  0.0013712186004089  0.3980217527649230
  0.7502562081465253  0.2488849895286939  0.3980217527649230
  0.7545882649865594  0.4954117350551565  0.3978901213513264
  0.7545882649629978  0.7591765299658998  0.3978901213513264
  0.1665681287628900  0.0834318786831287  0.3327763444358122
  0.1656397467296457  0.3328198808077297  0.3332854144164593
  0.1665681287854356  0.5831362277567897  0.3327763444358122
  0.1670362923694490  0.8335181238177277  0.3328126283783551
  0.4164818761842407  0.0829637150755538  0.3328126283783551
  0.4148283758475183  0.3331850978558899  0.3329355661939027
  0.4148283758554480  0.5816432481921333  0.3329355661939027
  0.4164818761218124  0.8335181238177277  0.3328126283783551
  0.6668637722309037  0.0834318786831287  0.3327763444358122
  0.6683567518101760  0.3331850978558899  0.3329355661939027
  0.6666666865512525  0.5833333134589864  0.3360839636992269
  0.6683567517945369  0.8351716241076610  0.3329355661939027
  0.9171801490058193  0.0843602607309891  0.3332854144164593
  0.9171801489590301  0.3328198808077297  0.3332854144164593
  0.9168149319187994  0.5816432481921333  0.3329355661939027
  0.9168149318952307  0.8351716241076610  0.3329355661939027
  0.0838145693525607  0.1661854381435232  0.4788544026216208
  0.0838145693439489  0.4176291535749829  0.4788544026216208
  0.0825318874040445  0.6671209781199452  0.4780188449144120
  0.0825318874159248  0.9154109465644930  0.4780188449144120
  0.3345890832907227  0.1674681200598659  0.4780188449144120
  0.3284227264496282  0.4142113781183476  0.4800033617863904
  0.3345890832585422  0.6671209781199452  0.4780188449144120
  0.3333333432690964  0.9166666865658257  0.4777742599318469
  0.5828790218697875  0.1674681200598659  0.4780188449144120
  0.5816716214273531  0.4133433024552360  0.4780458236301576
  0.5816716214037915  0.6683283785537678  0.4780458236301576
  0.5828790218494944  0.9154109465644930  0.4780188449144120
  0.8323708464618729  0.1661854381435232  0.4788544026216208
  0.8357886219099039  0.4142113781183476  0.4800033617863904
  0.8366566975494460  0.6683283785537678  0.4780458236301576
  0.8357886218982226  0.9215773033969753  0.4800033617863904
  0.6666666865512525  0.5833333134589864  0.2647178632335020
  0.6666666865512525  0.583333313489864   0.204718632
 
  0.00000000E+00  0.00000000E+00  0.00000000E+00
  0.00000000E+00  0.00000000E+00  0.00000000E+00
  0.00000000E+00  0.00000000E+00  0.00000000E+00
  0.00000000E+00  0.00000000E+00  0.00000000E+00
  0.00000000E+00  0.00000000E+00  0.00000000E+00
  0.00000000E+00  0.00000000E+00  0.00000000E+00
  0.00000000E+00  0.00000000E+00  0.00000000E+00
  0.00000000E+00  0.00000000E+00  0.00000000E+00
  0.00000000E+00  0.00000000E+00  0.00000000E+00
  0.00000000E+00  0.00000000E+00  0.00000000E+00
  0.00000000E+00  0.00000000E+00  0.00000000E+00
  0.00000000E+00  0.00000000E+00  0.00000000E+00
  0.00000000E+00  0.00000000E+00  0.00000000E+00
  0.00000000E+00  0.00000000E+00  0.00000000E+00
  0.00000000E+00  0.00000000E+00  0.00000000E+00
  0.00000000E+00  0.00000000E+00  0.00000000E+00
  0.00000000E+00  0.00000000E+00  0.00000000E+00
  0.00000000E+00  0.00000000E+00  0.00000000E+00
  0.00000000E+00  0.00000000E+00  0.00000000E+00
  0.00000000E+00  0.00000000E+00  0.00000000E+00
  0.00000000E+00  0.00000000E+00  0.00000000E+00
  0.00000000E+00  0.00000000E+00  0.00000000E+00
  0.00000000E+00  0.00000000E+00  0.00000000E+00
  0.00000000E+00  0.00000000E+00  0.00000000E+00
  0.00000000E+00  0.00000000E+00  0.00000000E+00
  0.00000000E+00  0.00000000E+00  0.00000000E+00
  0.00000000E+00  0.00000000E+00  0.00000000E+00
  0.00000000E+00  0.00000000E+00  0.00000000E+00
  0.00000000E+00  0.00000000E+00  0.00000000E+00
  0.00000000E+00  0.00000000E+00  0.00000000E+00
  0.00000000E+00  0.00000000E+00  0.00000000E+00
  0.00000000E+00  0.00000000E+00  0.00000000E+00
  0.00000000E+00  0.00000000E+00  0.00000000E+00
  0.00000000E+00  0.00000000E+00  0.00000000E+00
  0.00000000E+00  0.00000000E+00  0.00000000E+00
  0.00000000E+00  0.00000000E+00  0.00000000E+00
  0.00000000E+00  0.00000000E+00  0.00000000E+00
  0.00000000E+00  0.00000000E+00  0.00000000E+00
  0.00000000E+00  0.00000000E+00  0.00000000E+00
  0.00000000E+00  0.00000000E+00  0.00000000E+00
  0.00000000E+00  0.00000000E+00  0.00000000E+00
  0.00000000E+00  0.00000000E+00  0.00000000E+00
  0.00000000E+00  0.00000000E+00  0.00000000E+00
  0.00000000E+00  0.00000000E+00  0.00000000E+00
  0.00000000E+00  0.00000000E+00  0.00000000E+00
  0.00000000E+00  0.00000000E+00  0.00000000E+00
  0.00000000E+00  0.00000000E+00  0.00000000E+00
  0.00000000E+00  0.00000000E+00  0.00000000E+00
  0.00000000E+00  0.00000000E+00  0.00000000E+00
