SbSeI                                   
   1.00000000000000     
    16.6605014800999989    0.0000000000000000    0.0000000000000000
    -8.3302507401000003   14.4284175216000001    0.0000000000000000
     0.0000000000000000    0.0000000000000000   24.7181949615000001
   Sb   Se   I    H 
    16    16    16     1
Direct
 -0.0033681477053663 -0.0029439722914260  0.3936648908205124
  0.9966318522822702  0.2495758245583344  0.3936648908205124
  0.0006496714001053  0.5012993427942066  0.3938247962883231
  0.0006496713877420  0.7493503285959651  0.3938247962883231
  0.2496061918835681 -0.0007876162298653  0.3955522798757820
  0.2352676890394018  0.2426338444989068  0.3961292753580871
  0.2496061918935015  0.5003938081287954  0.3955522798757820
  0.2487006572157269  0.7493503285959651  0.3938247962883231
  0.5004241754109420 -0.0029439722914260  0.3936648908205124
  0.5073661554580059  0.2426338444989068  0.3961292753580871
  0.5073661554802956  0.5147323109605980  0.3961292753580871
  0.5004241754085119  0.7533681476915036  0.3936648908205124
  0.7499999999954952 -0.0000000000000000  0.3949793923034354
  0.7529439722745648  0.2495758245583344  0.3936648908205124
  0.7507876162352941  0.5003938081287954  0.3955522798757820
  0.7529439722844982  0.7533681476915036  0.3936648908205124
  0.1624938582050630  0.0811739622264314  0.3354163579279157
  0.1624938582139377  0.3313199034786659  0.3354163579279157
  0.1664723260271468  0.5835276590654962  0.3350104364228610
  0.1664723260147834  0.8329446222505575  0.3350104364228610
  0.4186801263471328  0.0811739622264314  0.3354163579279157
  0.4166666865348958  0.3333333432997776  0.3398709516459840
  0.4186801263880245  0.5875061269067074  0.3354163579279157
  0.4176433018677201  0.8338216210986182  0.3341761877545464
  0.6675955288727911  0.0824044934939928  0.3350856484230519
  0.6688260601492341  0.3313199034786659  0.3354163579279157
  0.6688260601812511  0.5875061269067074  0.3354163579279157
  0.6675955289013265  0.8351909981385859  0.3350856484230519
  0.9148090018264625  0.0824044934939928  0.3350856484230519
  0.9161783788753048  0.3323567279866069  0.3341761877545464
  0.9170553777553897  0.5835276590654962  0.3350104364228610
  0.9161783788949656  0.8338216210986182  0.3341761877545464
  0.0843155379796361  0.1671577727009900  0.4796671600733569
  0.0836316795525563  0.4169905551879258  0.4786857972752906
  0.0833333358258699  0.6666666865302417  0.4781030007455953
  0.0836316795278294  0.9166411615868877  0.4786857972752906
  0.3331898196565727  0.1663796244296340  0.4781586127917156
  0.3331898196866855  0.4168102101507661  0.4781586127917156
  0.3330094746371624  0.6663683428159186  0.4786857972752906
  0.3330094746248061  0.9166411615868877  0.4786857972752906
  0.5828422123910983  0.1671577727009900  0.4796671600733569
  0.5836203606925674  0.4168102101507661  0.4781586127917156
  0.5828422124088548  0.6656844843587263  0.4796671600733569
  0.5833048693696534  0.9166524644762355  0.4805073875395832
  0.8333475355016453  0.1666951156678083  0.4805073875395832
  0.8333588384211059  0.4169905551879258  0.4786857972752906
  0.8333588384087425  0.6663683428159186  0.4786857972752906
  0.8333475355070383  0.9166524644762355  0.4805073875395832
  0.4166666865348958  0.3333333432997776  0.2797693580406996
 
  0.00000000E+00  0.00000000E+00  0.00000000E+00
  0.00000000E+00  0.00000000E+00  0.00000000E+00
  0.00000000E+00  0.00000000E+00  0.00000000E+00
  0.00000000E+00  0.00000000E+00  0.00000000E+00
  0.00000000E+00  0.00000000E+00  0.00000000E+00
  0.00000000E+00  0.00000000E+00  0.00000000E+00
  0.00000000E+00  0.00000000E+00  0.00000000E+00
  0.00000000E+00  0.00000000E+00  0.00000000E+00
  0.00000000E+00  0.00000000E+00  0.00000000E+00
  0.00000000E+00  0.00000000E+00  0.00000000E+00
  0.00000000E+00  0.00000000E+00  0.00000000E+00
  0.00000000E+00  0.00000000E+00  0.00000000E+00
  0.00000000E+00  0.00000000E+00  0.00000000E+00
  0.00000000E+00  0.00000000E+00  0.00000000E+00
  0.00000000E+00  0.00000000E+00  0.00000000E+00
  0.00000000E+00  0.00000000E+00  0.00000000E+00
  0.00000000E+00  0.00000000E+00  0.00000000E+00
  0.00000000E+00  0.00000000E+00  0.00000000E+00
  0.00000000E+00  0.00000000E+00  0.00000000E+00
  0.00000000E+00  0.00000000E+00  0.00000000E+00
  0.00000000E+00  0.00000000E+00  0.00000000E+00
  0.00000000E+00  0.00000000E+00  0.00000000E+00
  0.00000000E+00  0.00000000E+00  0.00000000E+00
  0.00000000E+00  0.00000000E+00  0.00000000E+00
  0.00000000E+00  0.00000000E+00  0.00000000E+00
  0.00000000E+00  0.00000000E+00  0.00000000E+00
  0.00000000E+00  0.00000000E+00  0.00000000E+00
  0.00000000E+00  0.00000000E+00  0.00000000E+00
  0.00000000E+00  0.00000000E+00  0.00000000E+00
  0.00000000E+00  0.00000000E+00  0.00000000E+00
  0.00000000E+00  0.00000000E+00  0.00000000E+00
  0.00000000E+00  0.00000000E+00  0.00000000E+00
  0.00000000E+00  0.00000000E+00  0.00000000E+00
  0.00000000E+00  0.00000000E+00  0.00000000E+00
  0.00000000E+00  0.00000000E+00  0.00000000E+00
  0.00000000E+00  0.00000000E+00  0.00000000E+00
  0.00000000E+00  0.00000000E+00  0.00000000E+00
  0.00000000E+00  0.00000000E+00  0.00000000E+00
  0.00000000E+00  0.00000000E+00  0.00000000E+00
  0.00000000E+00  0.00000000E+00  0.00000000E+00
  0.00000000E+00  0.00000000E+00  0.00000000E+00
  0.00000000E+00  0.00000000E+00  0.00000000E+00
  0.00000000E+00  0.00000000E+00  0.00000000E+00
  0.00000000E+00  0.00000000E+00  0.00000000E+00
  0.00000000E+00  0.00000000E+00  0.00000000E+00
  0.00000000E+00  0.00000000E+00  0.00000000E+00
  0.00000000E+00  0.00000000E+00  0.00000000E+00
  0.00000000E+00  0.00000000E+00  0.00000000E+00
  0.00000000E+00  0.00000000E+00  0.00000000E+00
