SbSeI                                       
1.0
       16.6605014801         0.0000000000         0.0000000000
       -8.3302507401        14.4284175216         0.0000000000
        0.0000000000         0.0000000000        24.7181949615
   Sb   Se    I  H
   16   16   16  1
Cartesian
     0.000000000         0.000000000         9.748749291
    -2.082562685         3.607104380         9.748749291
    -4.165125370         7.214208761         9.748749291
    -6.247688055        10.821313141         9.748749291
     4.165125370         0.000000000         9.748749291
     2.082562685         3.607104380         9.748749291
     0.000000000         7.214208761         9.748749291
    -2.082562685        10.821313141         9.748749291
     8.330250740         0.000000000         9.748749291
     6.247688055         3.607104380         9.748749291
     4.165125370         7.214208761         9.748749291
     2.082562685        10.821313141         9.748749291
    12.495376110         0.000000000         9.748749291
    10.412813425         3.607104380         9.748749291
     8.330250740         7.214208761         9.748749291
     6.247688055        10.821313141         9.748749291
     2.082562747         1.202368163         8.281924452
     0.000000000         4.809472651         8.281924452
    -2.082562437         8.416576601         8.281924452
    -4.165125122        12.023680981         8.281924452
     6.247688365         1.202368163         8.281924452
     4.165125618         4.809472651         8.281924452
     2.082563182         8.416576601         8.281924452
     0.000000497        12.023680981         8.281924452
    10.412813735         1.202368163         8.281924452
     8.330250988         4.809472651         8.281924452
     6.247688552         8.416576601         8.281924452
     4.165125867        12.023680981         8.281924452
    14.577939105         1.202368163         8.281924452
    12.495376358         4.809472651         8.281924452
    10.412813922         8.416576601         8.281924452
     8.330251237        12.023680981         8.281924452
     0.000000000         2.404736325        11.849297351
    -2.082562809         6.011840921        11.849297351
    -4.165125494         9.618945301        11.849297351
    -6.247688179        13.226049681        11.849297351
     4.165125494         2.404736325        11.849297351
     2.082562685         6.011840921        11.849297351
     0.000000000         9.618945301        11.849297351
    -2.082562685        13.226049681        11.849297351
     8.330250368         2.404736325        11.849297351
     6.247687559         6.011840921        11.849297351
     4.165124874         9.618945301        11.849297351
     2.082562188        13.226049681        11.849297351
    12.495375738         2.404736325        11.849297351
    10.412812929         6.011840921        11.849297351
     8.330250244         9.618945301        11.849297351
     6.247687559        13.226049681        11.849297351
    4.165125618         4.809472651         6.981924452
